c Sudoku solution
p cnf 729 0
133 0
196 0
211 0
222 0
247 0
268 0
294 0
315 0
334 0
361 0
387 0
438 0
449 0
475 0
524 0
543 0
566 0
577 0
613 0
692 0
748 0
774 0
831 0
865 0
878 0
951 0
641 0
421 0
493 0
145 0
285 0
171 0
989 0
897 0
995 0
791 0
581 0
253 0
279 0
373 0
182 0
398 0
236 0
329 0
972 0
937 0
676 0
484 0
688 0
599 0
416 0
627 0
558 0
655 0
664 0
535 0
512 0
639 0
732 0
725 0
842 0
719 0
859 0
814 0
918 0
117 0
128 0
346 0
352 0
944 0
963 0
767 0
756 0
783 0
886 0
823 0
926 0
457 0
462 0
154 0
169 0
